c SAT Generator for power-law distributed variable frequencies
c -g u -v 20 -c 91 -k 3 -p 2.750000 -b 3.200000 -f /home/schmidt/Devel/ni-kop-sat/data/ensemble/ruf20-91/ruf20-91-252 -u 1 -U 1 -s 1569170684
p cnf 20 91
6 13 -16 0
2 -5 -10 0
3 5 -20 0
-10 -16 -17 0
4 15 17 0
-6 -14 19 0
7 -9 -20 0
-8 16 -19 0
-1 10 13 0
-4 6 -12 0
-5 9 -10 0
5 -11 -14 0
-2 -3 18 0
-1 16 -18 0
2 -8 -17 0
1 3 -6 0
-11 -13 20 0
-7 -11 -17 0
-6 -10 16 0
2 15 19 0
9 -16 18 0
-8 -9 -20 0
8 9 -18 0
-7 -10 -15 0
-7 17 20 0
6 8 15 0
2 -8 -13 0
-5 -13 -15 0
10 14 16 0
-7 -18 20 0
-1 -5 9 0
5 7 -16 0
2 -13 19 0
4 -18 20 0
-10 -11 -15 0
18 19 -20 0
-8 -18 -19 0
-8 9 -20 0
-11 -12 16 0
-1 -7 -9 0
1 -7 14 0
7 8 16 0
-4 -8 10 0
7 -8 -10 0
-1 -6 20 0
10 -11 -12 0
-2 6 11 0
8 -16 18 0
2 -4 -8 0
2 -10 -17 0
-3 5 13 0
-3 6 17 0
-1 17 18 0
3 9 -18 0
7 12 -13 0
-4 -10 -15 0
2 6 -11 0
2 5 12 0
-14 17 18 0
-4 15 17 0
-5 -7 12 0
11 18 -19 0
-8 9 11 0
-2 7 14 0
-1 -3 11 0
2 9 16 0
10 -11 -15 0
4 9 16 0
4 -12 16 0
-8 -11 -15 0
-6 11 12 0
-11 -14 16 0
-7 13 19 0
16 19 20 0
-10 11 18 0
4 -5 -8 0
4 5 9 0
1 -12 -17 0
-6 15 -16 0
4 13 17 0
-1 8 11 0
-6 -7 20 0
-4 -5 17 0
-3 -7 -10 0
-5 14 -18 0
1 -3 13 0
-11 15 18 0
1 -7 16 0
2 15 17 0
-6 19 -20 0
-10 -11 15 0
